\* Fantasy_Team *\
Maximize
OBJ: 6.55 DEF_ARI + 6.06 DEF_BUF + 3.58 DEF_CAR + 3.45 DEF_CIN + 6.67 DEF_CLE
 + 4.76 DEF_DEN + 1.98 DEF_DET + 4.75 DEF_GB + 2.8 DEF_HOU + 3.51 DEF_JAX
 + 4.53 DEF_LAC + 8.37 DEF_LAR + 3.09 DEF_LV + 9.64 DEF_MIA + 6.84 DEF_NO
 + 7.51 DEF_NYG + 10.59 DEF_PHI + 10.66 DEF_PIT + 4.47 DEF_SEA + 4.91 DEF_SF
 + 7.93 DEF_TB + 8.32 DEF_WSH + 28.74 QB_Aaron_Rodgers
 + 19.39 QB_Baker_Mayfield - 0.03 QB_Blaine_Gabbert + 19.52 QB_Carson_Wentz
 + 5.74 QB_Chase_Daniel + 13.77 QB_Daniel_Jones + 16.79 QB_Derek_Carr
 + 25.42 QB_Deshaun_Watson + 19.02 QB_Drew_Brees + 17.41 QB_Drew_Lock
 + 23.08 QB_Jake_Luton + 0.81 QB_Jalen_Hurts + 0.19 QB_Jameis_Winston
 + 21.07 QB_Jared_Goff + 18.73 QB_Joe_Burrow + 23.37 QB_Josh_Allen
 + 21.25 QB_Justin_Herbert + 31.49 QB_Kyler_Murray + 0.03 QB_Mason_Rudolph
 + 13.73 QB_Matthew_Stafford + 13.51 QB_Nick_Mullens + 21.75 QB_Russell_Wilson
 + 2.82 QB_Taysom_Hill + 16.84 QB_Teddy_Bridgewater - 0.12 QB_Tim_Boyle
 + 18.94 QB_Tom_Brady + 10.97 QB_Tua_Tagovailoa + 19.85 RB_Aaron_Jones
 + 6.7 RB_Adrian_Peterson + 16.79 RB_Alvin_Kamara + 0.64 RB_Andy_Janovich
 + 4.13 RB_Benny_Snell + 6.21 RB_Boston_Scott + 4.86 RB_Cam_Akers
 + 8.02 RB_Carlos_Hyde + 13.32 RB_Chase_Edmonds + 9.99 RB_Chris_Carson
 + 20.72 RB_Christian_McCaffrey + 1.93 RB_Corey_Clement
 + 11.25 RB_D'Andre_Swift + 2.85 RB_D'Ernest_Johnson
 + 9.73 RB_Darrell_Henderson + 9.75 RB_David_Johnson
 + 1.19 RB_DeAndre_Washington + 8 RB_DeeJay_Dallas + 7.28 RB_Devin_Singletary
 + 5.54 RB_Devonta_Freeman + 5.4 RB_Devontae_Booker + 4.12 RB_Dion_Lewis
 + 6.46 RB_Duke_Johnson + 0.71 RB_Dwayne_Washington + 0.88 RB_Elijhaa_Penny
 + 6.39 RB_Gabe_Nabers + 9.7 RB_Giovani_Bernard + 3.85 RB_JaMycal_Hasty
 + 3.06 RB_Jalen_Richard + 13.55 RB_Jamaal_Williams + 13.18 RB_James_Conner
 + 16.92 RB_James_Robinson + 0.74 RB_Jason_Huntley + 0.45 RB_Jaylen_Samuels
 + 11.99 RB_Jeff_Wilson + 6.77 RB_Jerick_McKinnon + 6.17 RB_Jordan_Howard
 + 12.07 RB_Josh_Jacobs + 7.39 RB_Joshua_Kelley + 11.74 RB_Justin_Jackson
 + 18.16 RB_Kareem_Hunt + 11.25 RB_Kenyan_Drake + 6.35 RB_Kerryon_Johnson
 + 5.36 RB_Latavius_Murray + 10.8 RB_Leonard_Fournette + 8.25 RB_Malcolm_Brown
 + 2.82 RB_Matt_Breida + 12.47 RB_Melvin_Gordon + 0.68 RB_Michael_Burton
 + 8.18 RB_Mike_Davis + 11.77 RB_Myles_Gaskin + 1.73 RB_Patrick_Laird
 + 9.67 RB_Phillip_Lindsay + 10.57 RB_Ronald_Jones + 3.06 RB_Royce_Freeman
 + 3.77 RB_Salvon_Ahmed + 3.43 RB_Samaje_Perine + 2.02 RB_Tevin_Coleman
 + 2.63 RB_Travis_Homer + 0.86 RB_Trenton_Cannon + 13.85 RB_Troymaine_Pope
 + 4.6 RB_Tyler_Ervin + 10.88 RB_Wayne_Gallman + 9.64 RB_Zack_Moss
 + 2.41 TE_Adam_Shaheen + 4.39 TE_Adam_Trautman + 2.95 TE_Cameron_Brate
 + 0.87 TE_Cethan_Carter + 1.18 TE_Chris_Manhertz + 5.71 TE_Dallas_Goedert
 + 3.82 TE_Dan_Arnold + 3.19 TE_Darrell_Daniels + 6.5 TE_Darren_Fells
 + 10.24 TE_Darren_Waller + 6.05 TE_David_Njoku + 1.81 TE_Donald_Parham
 + 3.36 TE_Drew_Sample + 3.16 TE_Durham_Smythe + 8.98 TE_Eric_Ebron
 + 7.37 TE_Evan_Engram + 2.44 TE_Foster_Moreau + 8.08 TE_Gerald_Everett
 + 2.57 TE_Greg_Olsen + 7.46 TE_Harrison_Bryant + 6.52 TE_Hunter_Henry
 + 2.35 TE_Ian_Thomas + 0.68 TE_Isaac_Nauta + 4.1 TE_Jace_Sternberger
 + 3.29 TE_Jacob_Hollister + 2.29 TE_James_O'Shaughnessy + 8.3 TE_Jared_Cook
 + 2.1 TE_Jason_Witten + 2.54 TE_Jesse_James + 5.3 TE_Johnny_Mundt
 + 5.89 TE_Jordan_Akins + 5.42 TE_Jordan_Reed + 2.32 TE_Josh_Hill
 + 1.4 TE_Kaden_Smith + 1.03 TE_Levine_Toilolo + 4.17 TE_Marcedes_Lewis
 + 4.27 TE_Maxx_Williams + 6.01 TE_Mike_Gesicki + 1.62 TE_Nick_Vannett
 + 8.27 TE_Noah_Fant + 1.22 TE_Pharaoh_Brown + 3.53 TE_Reggie_Gilliam
 + 7.26 TE_Richard_Rodgers + 7.02 TE_Rob_Gronkowski + 10.38 TE_Robert_Tonyan
 + 6.83 TE_Ross_Dwelley + 9.3 TE_T.J._Hockenson + 0.85 TE_Tanner_Hudson
 + 5.21 TE_Tyler_Eifert + 7.09 TE_Tyler_Higbee + 5.72 TE_Tyler_Kroft
 + 2.48 TE_Will_Dissly + 6.03 WR_A.J._Green + 3.75 WR_Andy_Isabella
 + 4.18 WR_Antonio_Brown + 3.77 WR_Auden_Tate + 5.58 WR_Austin_Mack
 + 12.4 WR_Brandin_Cooks + 14.55 WR_Brandon_Aiyuk + 2 WR_Brandon_Zylstra
 + 1.67 WR_C.J._Board + 12.18 WR_Chase_Claypool + 6.05 WR_Chris_Conley
 + 10.75 WR_Chris_Godwin + 14.01 WR_Christian_Kirk + 9.14 WR_Cole_Beasley
 + 2.43 WR_Collin_Johnson + 13.99 WR_Cooper_Kupp + 12.87 WR_Curtis_Samuel
 + 16.52 WR_D.J._Chark + 10.51 WR_D.J._Moore + 14.12 WR_DK_Metcalf
 + 4.86 WR_DaeSean_Hamilton + 6.13 WR_Danny_Amendola - 1.17 WR_Dante_Pettis
 + 6.88 WR_Darius_Slayton + 1.19 WR_Darrius_Shepherd + 30.21 WR_Davante_Adams
 + 7.31 WR_David_Moore + 13.43 WR_DeAndre_Hopkins + 9.46 WR_DeVante_Parker
 + 9.75 WR_Deebo_Samuel + 5.04 WR_Deonte_Harris + 10.93 WR_Diontae_Johnson
 + 9.67 WR_Donovan_Peoples_Jones + 10.91 WR_Emmanuel_Sanders
 + 1.25 WR_Equanimeous_St._Brown + 1.44 WR_Freddie_Swain
 + 5.79 WR_Gabriel_Davis + 6.87 WR_Golden_Tate + 7.53 WR_Greg_Ward
 + 4.89 WR_Henry_Ruggs_III + 7.6 WR_Hunter_Renfrow + 4.4 WR_Isaiah_McKenzie
 + 1.4 WR_J.J._Arcega_Whiteside + 5.69 WR_Jakeem_Grant + 3.48 WR_Jalen_Guyton
 + 8.22 WR_Jalen_Reagor + 5.38 WR_James_Washington + 8.37 WR_Jarvis_Landry
 + 10.02 WR_Jerry_Jeudy + 0.71 WR_Joe_Reed + 7.75 WR_John_Brown
 + 3.13 WR_John_Hightower + 9.08 WR_Josh_Reynolds
 + 13.13 WR_JuJu_Smith_Schuster + 7.65 WR_K.J._Hamler - 0.3 WR_K.J._Hill
 + 7.19 WR_Keelan_Cole + 14.6 WR_Keenan_Allen + 8.48 WR_Kenny_Golladay
 + 4.55 WR_Kenny_Stills + 6.09 WR_Larry_Fitzgerald
 + 5.32 WR_Laviska_Shenault_Jr. + 7.68 WR_Mack_Hollins + 0.51 WR_Malcolm_Perry
 + 3.65 WR_Malik_Taylor + 5.51 WR_Marquez_Callaway
 + 8.67 WR_Marquez_Valdes_Scantling + 4.11 WR_Marvin_Hall
 + 8.34 WR_Marvin_Jones + 5.81 WR_Michael_Thomas + 9.69 WR_Mike_Evans
 + 4.1 WR_Mike_Thomas + 11.37 WR_Mike_Williams + 9.33 WR_Nelson_Agholor
 + 4.37 WR_Quintez_Cephus + 9.27 WR_Randall_Cobb + 8.33 WR_Rashard_Higgins
 + 31.79 WR_Richie_James + 2.53 WR_River_Cracraft + 10.85 WR_Robby_Anderson
 + 16.45 WR_Robert_Woods + 13.48 WR_Stefon_Diggs + 9.1 WR_Sterling_Shepard
 + 12.17 WR_Tee_Higgins + 9.54 WR_Tim_Patrick + 15.85 WR_Travis_Fulgham
 + 7.29 WR_Tre'Quan_Smith + 2.45 WR_Trent_Taylor + 14.42 WR_Tyler_Boyd
 + 4.91 WR_Tyler_Johnson + 12.93 WR_Tyler_Lockett + 0.28 WR_Tyrie_Cleveland
 + 5.41 WR_Tyron_Johnson + 2.95 WR_Van_Jefferson + 15.56 WR_Will_Fuller
Subject To
_C1: 3600 DEF_ARI + 4100 DEF_BUF + 3000 DEF_CAR + 3400 DEF_CIN + 4400 DEF_CLE
 + 4300 DEF_DEN + 3900 DEF_DET + 4800 DEF_GB + 3500 DEF_HOU + 3100 DEF_JAX
 + 4100 DEF_LAC + 4000 DEF_LAR + 3500 DEF_LV + 4700 DEF_MIA + 4500 DEF_NO
 + 3900 DEF_NYG + 4600 DEF_PHI + 5000 DEF_PIT + 3700 DEF_SEA + 3700 DEF_SF
 + 4200 DEF_TB + 3800 DEF_WSH + 8400 QB_Aaron_Rodgers + 7000 QB_Baker_Mayfield
 + 6000 QB_Blaine_Gabbert + 7500 QB_Carson_Wentz + 6000 QB_Chase_Daniel
 + 6700 QB_Daniel_Jones + 6900 QB_Derek_Carr + 8300 QB_Deshaun_Watson
 + 7600 QB_Drew_Brees + 7100 QB_Drew_Lock + 6700 QB_Jake_Luton
 + 6100 QB_Jalen_Hurts + 6000 QB_Jameis_Winston + 7400 QB_Jared_Goff
 + 7200 QB_Joe_Burrow + 8700 QB_Josh_Allen + 8000 QB_Justin_Herbert
 + 8800 QB_Kyler_Murray + 6000 QB_Mason_Rudolph + 7300 QB_Matthew_Stafford
 + 6600 QB_Nick_Mullens + 8900 QB_Russell_Wilson + 4500 QB_Taysom_Hill
 + 7000 QB_Teddy_Bridgewater + 6000 QB_Tim_Boyle + 7800 QB_Tom_Brady
 + 6800 QB_Tua_Tagovailoa + 8800 RB_Aaron_Jones + 5200 RB_Adrian_Peterson
 + 9000 RB_Alvin_Kamara + 4500 RB_Andy_Janovich + 4900 RB_Benny_Snell
 + 5900 RB_Boston_Scott + 5100 RB_Cam_Akers + 5500 RB_Carlos_Hyde
 + 7100 RB_Chase_Edmonds + 7800 RB_Chris_Carson + 9700 RB_Christian_McCaffrey
 + 5000 RB_Corey_Clement + 6000 RB_D'Andre_Swift + 4800 RB_D'Ernest_Johnson
 + 5800 RB_Darrell_Henderson + 6300 RB_David_Johnson
 + 4500 RB_DeAndre_Washington + 5600 RB_DeeJay_Dallas
 + 5600 RB_Devin_Singletary + 5400 RB_Devonta_Freeman
 + 5200 RB_Devontae_Booker + 4600 RB_Dion_Lewis + 5800 RB_Duke_Johnson
 + 4500 RB_Dwayne_Washington + 4500 RB_Elijhaa_Penny + 4700 RB_Gabe_Nabers
 + 6200 RB_Giovani_Bernard + 5100 RB_JaMycal_Hasty + 4500 RB_Jalen_Richard
 + 5600 RB_Jamaal_Williams + 7600 RB_James_Conner + 7300 RB_James_Robinson
 + 4500 RB_Jason_Huntley + 4500 RB_Jaylen_Samuels + 5700 RB_Jeff_Wilson
 + 5500 RB_Jerick_McKinnon + 5200 RB_Jordan_Howard + 7500 RB_Josh_Jacobs
 + 5200 RB_Joshua_Kelley + 5500 RB_Justin_Jackson + 7500 RB_Kareem_Hunt
 + 6000 RB_Kenyan_Drake + 5000 RB_Kerryon_Johnson + 5000 RB_Latavius_Murray
 + 6400 RB_Leonard_Fournette + 5500 RB_Malcolm_Brown + 4600 RB_Matt_Breida
 + 6600 RB_Melvin_Gordon + 4500 RB_Michael_Burton + 5400 RB_Mike_Davis
 + 5700 RB_Myles_Gaskin + 4700 RB_Patrick_Laird + 5900 RB_Phillip_Lindsay
 + 6400 RB_Ronald_Jones + 4800 RB_Royce_Freeman + 4900 RB_Salvon_Ahmed
 + 4700 RB_Samaje_Perine + 5000 RB_Tevin_Coleman + 5300 RB_Travis_Homer
 + 4700 RB_Trenton_Cannon + 4500 RB_Troymaine_Pope + 4900 RB_Tyler_Ervin
 + 5700 RB_Wayne_Gallman + 5800 RB_Zack_Moss + 4200 TE_Adam_Shaheen
 + 4200 TE_Adam_Trautman + 4600 TE_Cameron_Brate + 4000 TE_Cethan_Carter
 + 4000 TE_Chris_Manhertz + 5800 TE_Dallas_Goedert + 4300 TE_Dan_Arnold
 + 4500 TE_Darrell_Daniels + 5000 TE_Darren_Fells + 7000 TE_Darren_Waller
 + 4800 TE_David_Njoku + 4400 TE_Donald_Parham + 4400 TE_Drew_Sample
 + 4300 TE_Durham_Smythe + 5400 TE_Eric_Ebron + 5600 TE_Evan_Engram
 + 4100 TE_Foster_Moreau + 4500 TE_Gerald_Everett + 4600 TE_Greg_Olsen
 + 4800 TE_Harrison_Bryant + 5500 TE_Hunter_Henry + 4400 TE_Ian_Thomas
 + 4000 TE_Isaac_Nauta + 4400 TE_Jace_Sternberger + 4700 TE_Jacob_Hollister
 + 4100 TE_James_O'Shaughnessy + 6000 TE_Jared_Cook + 4300 TE_Jason_Witten
 + 4300 TE_Jesse_James + 4000 TE_Johnny_Mundt + 4900 TE_Jordan_Akins
 + 5000 TE_Jordan_Reed + 4200 TE_Josh_Hill + 4100 TE_Kaden_Smith
 + 4000 TE_Levine_Toilolo + 4300 TE_Marcedes_Lewis + 4000 TE_Maxx_Williams
 + 5300 TE_Mike_Gesicki + 4400 TE_Nick_Vannett + 5700 TE_Noah_Fant
 + 4100 TE_Pharaoh_Brown + 4200 TE_Reggie_Gilliam + 4900 TE_Richard_Rodgers
 + 6100 TE_Rob_Gronkowski + 5700 TE_Robert_Tonyan + 5000 TE_Ross_Dwelley
 + 6200 TE_T.J._Hockenson + 4000 TE_Tanner_Hudson + 4600 TE_Tyler_Eifert
 + 5200 TE_Tyler_Higbee + 4700 TE_Tyler_Kroft + 4500 TE_Will_Dissly
 + 5600 WR_A.J._Green + 4800 WR_Andy_Isabella + 6500 WR_Antonio_Brown
 + 4600 WR_Auden_Tate + 4900 WR_Austin_Mack + 6300 WR_Brandin_Cooks
 + 6500 WR_Brandon_Aiyuk + 4500 WR_Brandon_Zylstra + 4500 WR_C.J._Board
 + 6100 WR_Chase_Claypool + 4800 WR_Chris_Conley + 7500 WR_Chris_Godwin
 + 6300 WR_Christian_Kirk + 5400 WR_Cole_Beasley + 4600 WR_Collin_Johnson
 + 7700 WR_Cooper_Kupp + 5700 WR_Curtis_Samuel + 6600 WR_D.J._Chark
 + 6900 WR_D.J._Moore + 8300 WR_DK_Metcalf + 4700 WR_DaeSean_Hamilton
 + 5200 WR_Danny_Amendola + 4500 WR_Dante_Pettis + 5900 WR_Darius_Slayton
 + 4600 WR_Darrius_Shepherd + 9500 WR_Davante_Adams + 5300 WR_David_Moore
 + 8600 WR_DeAndre_Hopkins + 6000 WR_DeVante_Parker + 6000 WR_Deebo_Samuel
 + 4900 WR_Deonte_Harris + 5700 WR_Diontae_Johnson
 + 5200 WR_Donovan_Peoples_Jones + 5800 WR_Emmanuel_Sanders
 + 4500 WR_Equanimeous_St._Brown + 4700 WR_Freddie_Swain
 + 5000 WR_Gabriel_Davis + 5300 WR_Golden_Tate + 5100 WR_Greg_Ward
 + 5600 WR_Henry_Ruggs_III + 4900 WR_Hunter_Renfrow + 4700 WR_Isaiah_McKenzie
 + 4600 WR_J.J._Arcega_Whiteside + 4600 WR_Jakeem_Grant + 4900 WR_Jalen_Guyton
 + 5600 WR_Jalen_Reagor + 5100 WR_James_Washington + 6000 WR_Jarvis_Landry
 + 5800 WR_Jerry_Jeudy + 4700 WR_Joe_Reed + 5600 WR_John_Brown
 + 4900 WR_John_Hightower + 5000 WR_Josh_Reynolds
 + 6400 WR_JuJu_Smith_Schuster + 5200 WR_K.J._Hamler + 4500 WR_K.J._Hill
 + 5100 WR_Keelan_Cole + 7800 WR_Keenan_Allen + 7000 WR_Kenny_Golladay
 + 4600 WR_Kenny_Stills + 5000 WR_Larry_Fitzgerald
 + 5200 WR_Laviska_Shenault_Jr. + 4800 WR_Mack_Hollins + 4500 WR_Malcolm_Perry
 + 4600 WR_Malik_Taylor + 4700 WR_Marquez_Callaway
 + 5500 WR_Marquez_Valdes_Scantling + 4600 WR_Marvin_Hall
 + 6200 WR_Marvin_Jones + 8500 WR_Michael_Thomas + 7300 WR_Mike_Evans
 + 4500 WR_Mike_Thomas + 5900 WR_Mike_Williams + 5100 WR_Nelson_Agholor
 + 4500 WR_Nsimba_Webster + 4600 WR_Quintez_Cephus + 5100 WR_Randall_Cobb
 + 5500 WR_Rashard_Higgins + 5400 WR_Richie_James + 4500 WR_River_Cracraft
 + 6400 WR_Robby_Anderson + 7200 WR_Robert_Woods + 7900 WR_Stefon_Diggs
 + 5500 WR_Sterling_Shepard + 6100 WR_Tee_Higgins + 5500 WR_Tim_Patrick
 + 6800 WR_Travis_Fulgham + 5000 WR_Tre'Quan_Smith + 4800 WR_Trent_Taylor
 + 6700 WR_Tyler_Boyd + 5000 WR_Tyler_Johnson + 7400 WR_Tyler_Lockett
 + 4500 WR_Tyrie_Cleveland + 4700 WR_Tyron_Johnson + 4600 WR_Van_Jefferson
 + 7100 WR_Will_Fuller <= 60000
_C10: RB_Aaron_Jones + RB_Adrian_Peterson + RB_Alvin_Kamara + RB_Benny_Snell
 + RB_Boston_Scott + RB_Cam_Akers + RB_Carlos_Hyde + RB_Chase_Edmonds
 + RB_Chris_Carson + RB_Christian_McCaffrey + RB_D'Andre_Swift
 + RB_D'Ernest_Johnson + RB_Darrell_Henderson + RB_David_Johnson
 + RB_DeeJay_Dallas + RB_Devin_Singletary + RB_Devonta_Freeman
 + RB_Devontae_Booker + RB_Dion_Lewis + RB_Duke_Johnson + RB_Gabe_Nabers
 + RB_Giovani_Bernard + RB_JaMycal_Hasty + RB_Jalen_Richard
 + RB_Jamaal_Williams + RB_James_Conner + RB_James_Robinson + RB_Jeff_Wilson
 + RB_Jerick_McKinnon + RB_Jordan_Howard + RB_Josh_Jacobs + RB_Joshua_Kelley
 + RB_Justin_Jackson + RB_Kareem_Hunt + RB_Kenyan_Drake + RB_Kerryon_Johnson
 + RB_Latavius_Murray + RB_Leonard_Fournette + RB_Malcolm_Brown
 + RB_Matt_Breida + RB_Melvin_Gordon + RB_Mike_Davis + RB_Myles_Gaskin
 + RB_Phillip_Lindsay + RB_Ronald_Jones + RB_Royce_Freeman + RB_Salvon_Ahmed
 + RB_Samaje_Perine + RB_Troymaine_Pope + RB_Tyler_Ervin + RB_Wayne_Gallman
 + RB_Zack_Moss + TE_Adam_Shaheen + TE_Adam_Trautman + TE_Cameron_Brate
 + TE_Cethan_Carter + TE_Chris_Manhertz + TE_Dallas_Goedert + TE_Dan_Arnold
 + TE_Darrell_Daniels + TE_Darren_Fells + TE_Darren_Waller + TE_David_Njoku
 + TE_Donald_Parham + TE_Drew_Sample + TE_Durham_Smythe + TE_Eric_Ebron
 + TE_Evan_Engram + TE_Foster_Moreau + TE_Gerald_Everett + TE_Greg_Olsen
 + TE_Harrison_Bryant + TE_Hunter_Henry + TE_Ian_Thomas + TE_Isaac_Nauta
 + TE_Jace_Sternberger + TE_Jacob_Hollister + TE_James_O'Shaughnessy
 + TE_Jared_Cook + TE_Jason_Witten + TE_Jesse_James + TE_Johnny_Mundt
 + TE_Jordan_Akins + TE_Jordan_Reed + TE_Josh_Hill + TE_Kaden_Smith
 + TE_Levine_Toilolo + TE_Marcedes_Lewis + TE_Maxx_Williams + TE_Mike_Gesicki
 + TE_Nick_Vannett + TE_Noah_Fant + TE_Pharaoh_Brown + TE_Reggie_Gilliam
 + TE_Richard_Rodgers + TE_Rob_Gronkowski + TE_Robert_Tonyan + TE_Ross_Dwelley
 + TE_T.J._Hockenson + TE_Tanner_Hudson + TE_Tyler_Eifert + TE_Tyler_Higbee
 + TE_Tyler_Kroft + TE_Will_Dissly + WR_Brandin_Cooks + WR_Brandon_Aiyuk
 + WR_Chase_Claypool + WR_Chris_Godwin + WR_Christian_Kirk + WR_Cole_Beasley
 + WR_Cooper_Kupp + WR_Curtis_Samuel + WR_D.J._Chark + WR_D.J._Moore
 + WR_DK_Metcalf + WR_Darius_Slayton + WR_Davante_Adams + WR_David_Moore
 + WR_DeAndre_Hopkins + WR_DeVante_Parker + WR_Deebo_Samuel
 + WR_Diontae_Johnson + WR_Donovan_Peoples_Jones + WR_Emmanuel_Sanders
 + WR_Greg_Ward + WR_Hunter_Renfrow + WR_Jalen_Reagor + WR_Jarvis_Landry
 + WR_Jerry_Jeudy + WR_John_Brown + WR_Josh_Reynolds + WR_JuJu_Smith_Schuster
 + WR_K.J._Hamler + WR_Keelan_Cole + WR_Keenan_Allen + WR_Kenny_Golladay
 + WR_Mack_Hollins + WR_Marquez_Valdes_Scantling + WR_Marvin_Jones
 + WR_Mike_Evans + WR_Mike_Williams + WR_Nelson_Agholor + WR_Randall_Cobb
 + WR_Rashard_Higgins + WR_Richie_James + WR_Robby_Anderson + WR_Robert_Woods
 + WR_Stefon_Diggs + WR_Sterling_Shepard + WR_Tee_Higgins + WR_Tim_Patrick
 + WR_Travis_Fulgham + WR_Tre'Quan_Smith + WR_Tyler_Boyd + WR_Tyler_Lockett
 + WR_Will_Fuller = 7
_C2: QB_Aaron_Rodgers + QB_Baker_Mayfield + QB_Blaine_Gabbert
 + QB_Carson_Wentz + QB_Chase_Daniel + QB_Daniel_Jones + QB_Derek_Carr
 + QB_Deshaun_Watson + QB_Drew_Brees + QB_Drew_Lock + QB_Jake_Luton
 + QB_Jalen_Hurts + QB_Jameis_Winston + QB_Jared_Goff + QB_Joe_Burrow
 + QB_Josh_Allen + QB_Justin_Herbert + QB_Kyler_Murray + QB_Mason_Rudolph
 + QB_Matthew_Stafford + QB_Nick_Mullens + QB_Russell_Wilson + QB_Taysom_Hill
 + QB_Teddy_Bridgewater + QB_Tim_Boyle + QB_Tom_Brady + QB_Tua_Tagovailoa = 1
_C3: DEF_ARI + DEF_BUF + DEF_CAR + DEF_CIN + DEF_CLE + DEF_DEN + DEF_DET
 + DEF_GB + DEF_HOU + DEF_JAX + DEF_LAC + DEF_LAR + DEF_LV + DEF_MIA + DEF_NO
 + DEF_NYG + DEF_PHI + DEF_PIT + DEF_SEA + DEF_SF + DEF_TB + DEF_WSH = 1
_C4: RB_Aaron_Jones + RB_Adrian_Peterson + RB_Alvin_Kamara + RB_Benny_Snell
 + RB_Boston_Scott + RB_Cam_Akers + RB_Carlos_Hyde + RB_Chase_Edmonds
 + RB_Chris_Carson + RB_Christian_McCaffrey + RB_D'Andre_Swift
 + RB_D'Ernest_Johnson + RB_Darrell_Henderson + RB_David_Johnson
 + RB_DeeJay_Dallas + RB_Devin_Singletary + RB_Devonta_Freeman
 + RB_Devontae_Booker + RB_Dion_Lewis + RB_Duke_Johnson + RB_Gabe_Nabers
 + RB_Giovani_Bernard + RB_JaMycal_Hasty + RB_Jalen_Richard
 + RB_Jamaal_Williams + RB_James_Conner + RB_James_Robinson + RB_Jeff_Wilson
 + RB_Jerick_McKinnon + RB_Jordan_Howard + RB_Josh_Jacobs + RB_Joshua_Kelley
 + RB_Justin_Jackson + RB_Kareem_Hunt + RB_Kenyan_Drake + RB_Kerryon_Johnson
 + RB_Latavius_Murray + RB_Leonard_Fournette + RB_Malcolm_Brown
 + RB_Matt_Breida + RB_Melvin_Gordon + RB_Mike_Davis + RB_Myles_Gaskin
 + RB_Phillip_Lindsay + RB_Ronald_Jones + RB_Royce_Freeman + RB_Salvon_Ahmed
 + RB_Samaje_Perine + RB_Troymaine_Pope + RB_Tyler_Ervin + RB_Wayne_Gallman
 + RB_Zack_Moss >= 2
_C5: RB_Aaron_Jones + RB_Adrian_Peterson + RB_Alvin_Kamara + RB_Benny_Snell
 + RB_Boston_Scott + RB_Cam_Akers + RB_Carlos_Hyde + RB_Chase_Edmonds
 + RB_Chris_Carson + RB_Christian_McCaffrey + RB_D'Andre_Swift
 + RB_D'Ernest_Johnson + RB_Darrell_Henderson + RB_David_Johnson
 + RB_DeeJay_Dallas + RB_Devin_Singletary + RB_Devonta_Freeman
 + RB_Devontae_Booker + RB_Dion_Lewis + RB_Duke_Johnson + RB_Gabe_Nabers
 + RB_Giovani_Bernard + RB_JaMycal_Hasty + RB_Jalen_Richard
 + RB_Jamaal_Williams + RB_James_Conner + RB_James_Robinson + RB_Jeff_Wilson
 + RB_Jerick_McKinnon + RB_Jordan_Howard + RB_Josh_Jacobs + RB_Joshua_Kelley
 + RB_Justin_Jackson + RB_Kareem_Hunt + RB_Kenyan_Drake + RB_Kerryon_Johnson
 + RB_Latavius_Murray + RB_Leonard_Fournette + RB_Malcolm_Brown
 + RB_Matt_Breida + RB_Melvin_Gordon + RB_Mike_Davis + RB_Myles_Gaskin
 + RB_Phillip_Lindsay + RB_Ronald_Jones + RB_Royce_Freeman + RB_Salvon_Ahmed
 + RB_Samaje_Perine + RB_Troymaine_Pope + RB_Tyler_Ervin + RB_Wayne_Gallman
 + RB_Zack_Moss <= 3
_C6: WR_Brandin_Cooks + WR_Brandon_Aiyuk + WR_Chase_Claypool + WR_Chris_Godwin
 + WR_Christian_Kirk + WR_Cole_Beasley + WR_Cooper_Kupp + WR_Curtis_Samuel
 + WR_D.J._Chark + WR_D.J._Moore + WR_DK_Metcalf + WR_Darius_Slayton
 + WR_Davante_Adams + WR_David_Moore + WR_DeAndre_Hopkins + WR_DeVante_Parker
 + WR_Deebo_Samuel + WR_Diontae_Johnson + WR_Donovan_Peoples_Jones
 + WR_Emmanuel_Sanders + WR_Greg_Ward + WR_Hunter_Renfrow + WR_Jalen_Reagor
 + WR_Jarvis_Landry + WR_Jerry_Jeudy + WR_John_Brown + WR_Josh_Reynolds
 + WR_JuJu_Smith_Schuster + WR_K.J._Hamler + WR_Keelan_Cole + WR_Keenan_Allen
 + WR_Kenny_Golladay + WR_Mack_Hollins + WR_Marquez_Valdes_Scantling
 + WR_Marvin_Jones + WR_Mike_Evans + WR_Mike_Williams + WR_Nelson_Agholor
 + WR_Randall_Cobb + WR_Rashard_Higgins + WR_Richie_James + WR_Robby_Anderson
 + WR_Robert_Woods + WR_Stefon_Diggs + WR_Sterling_Shepard + WR_Tee_Higgins
 + WR_Tim_Patrick + WR_Travis_Fulgham + WR_Tre'Quan_Smith + WR_Tyler_Boyd
 + WR_Tyler_Lockett + WR_Will_Fuller >= 3
_C7: WR_Brandin_Cooks + WR_Brandon_Aiyuk + WR_Chase_Claypool + WR_Chris_Godwin
 + WR_Christian_Kirk + WR_Cole_Beasley + WR_Cooper_Kupp + WR_Curtis_Samuel
 + WR_D.J._Chark + WR_D.J._Moore + WR_DK_Metcalf + WR_Darius_Slayton
 + WR_Davante_Adams + WR_David_Moore + WR_DeAndre_Hopkins + WR_DeVante_Parker
 + WR_Deebo_Samuel + WR_Diontae_Johnson + WR_Donovan_Peoples_Jones
 + WR_Emmanuel_Sanders + WR_Greg_Ward + WR_Hunter_Renfrow + WR_Jalen_Reagor
 + WR_Jarvis_Landry + WR_Jerry_Jeudy + WR_John_Brown + WR_Josh_Reynolds
 + WR_JuJu_Smith_Schuster + WR_K.J._Hamler + WR_Keelan_Cole + WR_Keenan_Allen
 + WR_Kenny_Golladay + WR_Mack_Hollins + WR_Marquez_Valdes_Scantling
 + WR_Marvin_Jones + WR_Mike_Evans + WR_Mike_Williams + WR_Nelson_Agholor
 + WR_Randall_Cobb + WR_Rashard_Higgins + WR_Richie_James + WR_Robby_Anderson
 + WR_Robert_Woods + WR_Stefon_Diggs + WR_Sterling_Shepard + WR_Tee_Higgins
 + WR_Tim_Patrick + WR_Travis_Fulgham + WR_Tre'Quan_Smith + WR_Tyler_Boyd
 + WR_Tyler_Lockett + WR_Will_Fuller <= 4
_C8: TE_Adam_Shaheen + TE_Adam_Trautman + TE_Cameron_Brate + TE_Cethan_Carter
 + TE_Chris_Manhertz + TE_Dallas_Goedert + TE_Dan_Arnold + TE_Darrell_Daniels
 + TE_Darren_Fells + TE_Darren_Waller + TE_David_Njoku + TE_Donald_Parham
 + TE_Drew_Sample + TE_Durham_Smythe + TE_Eric_Ebron + TE_Evan_Engram
 + TE_Foster_Moreau + TE_Gerald_Everett + TE_Greg_Olsen + TE_Harrison_Bryant
 + TE_Hunter_Henry + TE_Ian_Thomas + TE_Isaac_Nauta + TE_Jace_Sternberger
 + TE_Jacob_Hollister + TE_James_O'Shaughnessy + TE_Jared_Cook
 + TE_Jason_Witten + TE_Jesse_James + TE_Johnny_Mundt + TE_Jordan_Akins
 + TE_Jordan_Reed + TE_Josh_Hill + TE_Kaden_Smith + TE_Levine_Toilolo
 + TE_Marcedes_Lewis + TE_Maxx_Williams + TE_Mike_Gesicki + TE_Nick_Vannett
 + TE_Noah_Fant + TE_Pharaoh_Brown + TE_Reggie_Gilliam + TE_Richard_Rodgers
 + TE_Rob_Gronkowski + TE_Robert_Tonyan + TE_Ross_Dwelley + TE_T.J._Hockenson
 + TE_Tanner_Hudson + TE_Tyler_Eifert + TE_Tyler_Higbee + TE_Tyler_Kroft
 + TE_Will_Dissly >= 1
_C9: TE_Adam_Shaheen + TE_Adam_Trautman + TE_Cameron_Brate + TE_Cethan_Carter
 + TE_Chris_Manhertz + TE_Dallas_Goedert + TE_Dan_Arnold + TE_Darrell_Daniels
 + TE_Darren_Fells + TE_Darren_Waller + TE_David_Njoku + TE_Donald_Parham
 + TE_Drew_Sample + TE_Durham_Smythe + TE_Eric_Ebron + TE_Evan_Engram
 + TE_Foster_Moreau + TE_Gerald_Everett + TE_Greg_Olsen + TE_Harrison_Bryant
 + TE_Hunter_Henry + TE_Ian_Thomas + TE_Isaac_Nauta + TE_Jace_Sternberger
 + TE_Jacob_Hollister + TE_James_O'Shaughnessy + TE_Jared_Cook
 + TE_Jason_Witten + TE_Jesse_James + TE_Johnny_Mundt + TE_Jordan_Akins
 + TE_Jordan_Reed + TE_Josh_Hill + TE_Kaden_Smith + TE_Levine_Toilolo
 + TE_Marcedes_Lewis + TE_Maxx_Williams + TE_Mike_Gesicki + TE_Nick_Vannett
 + TE_Noah_Fant + TE_Pharaoh_Brown + TE_Reggie_Gilliam + TE_Richard_Rodgers
 + TE_Rob_Gronkowski + TE_Robert_Tonyan + TE_Ross_Dwelley + TE_T.J._Hockenson
 + TE_Tanner_Hudson + TE_Tyler_Eifert + TE_Tyler_Higbee + TE_Tyler_Kroft
 + TE_Will_Dissly <= 2
Binaries
DEF_ARI
DEF_BUF
DEF_CAR
DEF_CIN
DEF_CLE
DEF_DEN
DEF_DET
DEF_GB
DEF_HOU
DEF_JAX
DEF_LAC
DEF_LAR
DEF_LV
DEF_MIA
DEF_NO
DEF_NYG
DEF_PHI
DEF_PIT
DEF_SEA
DEF_SF
DEF_TB
DEF_WSH
QB_Aaron_Rodgers
QB_Baker_Mayfield
QB_Blaine_Gabbert
QB_Carson_Wentz
QB_Chase_Daniel
QB_Daniel_Jones
QB_Derek_Carr
QB_Deshaun_Watson
QB_Drew_Brees
QB_Drew_Lock
QB_Jake_Luton
QB_Jalen_Hurts
QB_Jameis_Winston
QB_Jared_Goff
QB_Joe_Burrow
QB_Josh_Allen
QB_Justin_Herbert
QB_Kyler_Murray
QB_Mason_Rudolph
QB_Matthew_Stafford
QB_Nick_Mullens
QB_Russell_Wilson
QB_Taysom_Hill
QB_Teddy_Bridgewater
QB_Tim_Boyle
QB_Tom_Brady
QB_Tua_Tagovailoa
RB_Aaron_Jones
RB_Adrian_Peterson
RB_Alvin_Kamara
RB_Andy_Janovich
RB_Benny_Snell
RB_Boston_Scott
RB_Cam_Akers
RB_Carlos_Hyde
RB_Chase_Edmonds
RB_Chris_Carson
RB_Christian_McCaffrey
RB_Corey_Clement
RB_D'Andre_Swift
RB_D'Ernest_Johnson
RB_Darrell_Henderson
RB_David_Johnson
RB_DeAndre_Washington
RB_DeeJay_Dallas
RB_Devin_Singletary
RB_Devonta_Freeman
RB_Devontae_Booker
RB_Dion_Lewis
RB_Duke_Johnson
RB_Dwayne_Washington
RB_Elijhaa_Penny
RB_Gabe_Nabers
RB_Giovani_Bernard
RB_JaMycal_Hasty
RB_Jalen_Richard
RB_Jamaal_Williams
RB_James_Conner
RB_James_Robinson
RB_Jason_Huntley
RB_Jaylen_Samuels
RB_Jeff_Wilson
RB_Jerick_McKinnon
RB_Jordan_Howard
RB_Josh_Jacobs
RB_Joshua_Kelley
RB_Justin_Jackson
RB_Kareem_Hunt
RB_Kenyan_Drake
RB_Kerryon_Johnson
RB_Latavius_Murray
RB_Leonard_Fournette
RB_Malcolm_Brown
RB_Matt_Breida
RB_Melvin_Gordon
RB_Michael_Burton
RB_Mike_Davis
RB_Myles_Gaskin
RB_Patrick_Laird
RB_Phillip_Lindsay
RB_Ronald_Jones
RB_Royce_Freeman
RB_Salvon_Ahmed
RB_Samaje_Perine
RB_Tevin_Coleman
RB_Travis_Homer
RB_Trenton_Cannon
RB_Troymaine_Pope
RB_Tyler_Ervin
RB_Wayne_Gallman
RB_Zack_Moss
TE_Adam_Shaheen
TE_Adam_Trautman
TE_Cameron_Brate
TE_Cethan_Carter
TE_Chris_Manhertz
TE_Dallas_Goedert
TE_Dan_Arnold
TE_Darrell_Daniels
TE_Darren_Fells
TE_Darren_Waller
TE_David_Njoku
TE_Donald_Parham
TE_Drew_Sample
TE_Durham_Smythe
TE_Eric_Ebron
TE_Evan_Engram
TE_Foster_Moreau
TE_Gerald_Everett
TE_Greg_Olsen
TE_Harrison_Bryant
TE_Hunter_Henry
TE_Ian_Thomas
TE_Isaac_Nauta
TE_Jace_Sternberger
TE_Jacob_Hollister
TE_James_O'Shaughnessy
TE_Jared_Cook
TE_Jason_Witten
TE_Jesse_James
TE_Johnny_Mundt
TE_Jordan_Akins
TE_Jordan_Reed
TE_Josh_Hill
TE_Kaden_Smith
TE_Levine_Toilolo
TE_Marcedes_Lewis
TE_Maxx_Williams
TE_Mike_Gesicki
TE_Nick_Vannett
TE_Noah_Fant
TE_Pharaoh_Brown
TE_Reggie_Gilliam
TE_Richard_Rodgers
TE_Rob_Gronkowski
TE_Robert_Tonyan
TE_Ross_Dwelley
TE_T.J._Hockenson
TE_Tanner_Hudson
TE_Tyler_Eifert
TE_Tyler_Higbee
TE_Tyler_Kroft
TE_Will_Dissly
WR_A.J._Green
WR_Andy_Isabella
WR_Antonio_Brown
WR_Auden_Tate
WR_Austin_Mack
WR_Brandin_Cooks
WR_Brandon_Aiyuk
WR_Brandon_Zylstra
WR_C.J._Board
WR_Chase_Claypool
WR_Chris_Conley
WR_Chris_Godwin
WR_Christian_Kirk
WR_Cole_Beasley
WR_Collin_Johnson
WR_Cooper_Kupp
WR_Curtis_Samuel
WR_D.J._Chark
WR_D.J._Moore
WR_DK_Metcalf
WR_DaeSean_Hamilton
WR_Danny_Amendola
WR_Dante_Pettis
WR_Darius_Slayton
WR_Darrius_Shepherd
WR_Davante_Adams
WR_David_Moore
WR_DeAndre_Hopkins
WR_DeVante_Parker
WR_Deebo_Samuel
WR_Deonte_Harris
WR_Diontae_Johnson
WR_Donovan_Peoples_Jones
WR_Emmanuel_Sanders
WR_Equanimeous_St._Brown
WR_Freddie_Swain
WR_Gabriel_Davis
WR_Golden_Tate
WR_Greg_Ward
WR_Henry_Ruggs_III
WR_Hunter_Renfrow
WR_Isaiah_McKenzie
WR_J.J._Arcega_Whiteside
WR_Jakeem_Grant
WR_Jalen_Guyton
WR_Jalen_Reagor
WR_James_Washington
WR_Jarvis_Landry
WR_Jerry_Jeudy
WR_Joe_Reed
WR_John_Brown
WR_John_Hightower
WR_Josh_Reynolds
WR_JuJu_Smith_Schuster
WR_K.J._Hamler
WR_K.J._Hill
WR_Keelan_Cole
WR_Keenan_Allen
WR_Kenny_Golladay
WR_Kenny_Stills
WR_Larry_Fitzgerald
WR_Laviska_Shenault_Jr.
WR_Mack_Hollins
WR_Malcolm_Perry
WR_Malik_Taylor
WR_Marquez_Callaway
WR_Marquez_Valdes_Scantling
WR_Marvin_Hall
WR_Marvin_Jones
WR_Michael_Thomas
WR_Mike_Evans
WR_Mike_Thomas
WR_Mike_Williams
WR_Nelson_Agholor
WR_Nsimba_Webster
WR_Quintez_Cephus
WR_Randall_Cobb
WR_Rashard_Higgins
WR_Richie_James
WR_River_Cracraft
WR_Robby_Anderson
WR_Robert_Woods
WR_Stefon_Diggs
WR_Sterling_Shepard
WR_Tee_Higgins
WR_Tim_Patrick
WR_Travis_Fulgham
WR_Tre'Quan_Smith
WR_Trent_Taylor
WR_Tyler_Boyd
WR_Tyler_Johnson
WR_Tyler_Lockett
WR_Tyrie_Cleveland
WR_Tyron_Johnson
WR_Van_Jefferson
WR_Will_Fuller
End
